proyfinal/src/viki/013/andrea/andrea-localstore/experimentInOfficeAgust.take6/worker_5/20ac7532-d6bc-4f83-9591-44b786367a06.als.cnf.out
Reading from standard input... Use '--help' for help.
============================[ Problem Statistics ]=============================
|                                                                             |
|  Number of variables:         87638                                         |
|  Number of clauses:          161767                                         |
|  Parse time:                   0.04 s                                       |
|                                                                             |
============================[ Search Statistics ]==============================
| Conflicts |          ORIGINAL         |          LEARNT          | Progress |
|           |    Vars  Clauses Literals |    Limit  Clauses Lit/Cl |          |
===============================================================================
|       100 |   62037   103945   259729 |    38113      100     17 | 29.212 % |
|       250 |   62037   103945   259729 |    41924      250     34 | 29.212 % |
|       475 |   62037   103945   259729 |    46116      475     66 | 29.212 % |
|       812 |   61956   103813   259377 |    50728      790     60 | 29.305 % |
|      1318 |   61956   103648   258941 |    55801     1277     83 | 29.305 % |
|      2077 |   61936   103570   258751 |    61381     2035     84 | 29.328 % |
|      3216 |   61936   103570   258751 |    67519     3174     89 | 29.327 % |
|      4924 |   61919   103502   258588 |    74271     4880     84 | 29.347 % |
|      7486 |   48851    65481   164918 |    81698     6633     78 | 44.258 % |
|     11330 |   48317    63720   160781 |    89868    10142     64 | 44.868 % |
===============================================================================
restarts              : 52
conflicts             : 11894          (7502 /sec)
decisions             : 45032          (0.00 % random) (28404 /sec)
propagations          : 16446087       (10373272 /sec)
conflict literals     : 742290         (47.56 % deleted)
Memory used           : 32.18 MB
CPU time              : 1.58543 s

UNSATISFIABLE
